! geometry optimization
!
 $CONTRL COORD=CART  ! SCFTYP=RHF 
  NZVAR=0 MULT=1 ICHARG=-1
  AIMPAC=.TRUE.         ! Requests wfn file to be written.
  RUNTYP=OPTIMIZE
  dfttyp=b3lyp
 $END
 $SYSTEM MWORDS=5 $END
 $STATPT OPTTOL=1.0E-4 nstep=2 $END
 $GUESS GUESS=HUCKEL $END
 $BASIS GBASIS=N31 NGAUSS=6 NDFUNC=1 NPFUNC=1 $END
 $DATA
Initial configuration generated from OpenBabel online tool
C1
 C         6.0     -1.1736822797  -1.2066086008  -0.0301408419
 H         1.0      -0.6095159838  -2.1303733524  -0.051387728
 C         6.0      -0.4566785994   0.0020078297  -0.000657324
 C         6.0      -1.1749611176   1.2096482446   0.040244113
 H         1.0      -0.6129398732   2.1342399107   0.081804819
 C         6.0      -2.5690765506   1.2061970445   0.025881138
 H         1.0      -3.1086060729   2.1473662892   0.027276021
 C         6.0      -3.2752836507  -0.0001391436  -0.000812403
 H         1.0      -4.3592469939  -0.0013048772   0.004290618
 C         6.0      -2.5673712811  -1.2055515471  -0.022405953
 H         1.0      -3.1045210598  -2.1476130842  -0.048711663
 C         6.0       1.0018406621   0.0001169327  -0.015427237
 N         7.0       1.7541789270   1.1192064641  -0.116750265
 N         7.0       3.0276237356   0.6718412343  -0.059931138
 N         7.0       3.0244712816  -0.6773785922   0.069704927
 N         7.0      1.7492117547  -1.1212591080   0.0982710579
 $END
